============================[ Problem Statistics ]=============================|                                                                             ||  Number of variables:          4242                                         ||  Number of clauses:           10145                                         ||  Parse time:                   0.54 s                                       ||                                                                             |============================[ Search Statistics ]==============================| Conflicts |          ORIGINAL         |          LEARNT          | Progress ||           |    Vars  Clauses Literals |    Limit  Clauses Lit/Cl |          |===============================================================================|       100 |    1591     6350   850251 |     2328      100     53 | 62.501 % ||       250 |    1591     6350   850251 |     2561      250     75 | 62.495 % |===============================================================================restarts              : 3conflicts             : 297            (365 /sec)decisions             : 560            (0.00 % random) (688 /sec)propagations          : 11844          (14550 /sec)conflict literals     : 23369          (94.75 % deleted)CPU time              : 0.814 sSATISFIABLE